(set-logic ALL)
(declare-fun seed0_T_1 () Bool)
(declare-fun seed0_T_2 () Bool)
(declare-fun seed0_T_3 () Bool)
(declare-fun seed0_T_4 () Bool)
(declare-fun seed0_var_0xINPUT_160416 () String)
(assert (and (or (= seed0_T_1 (= "-" seed0_var_0xINPUT_160416)) (str.< (str.++ seed0_var_0xINPUT_160416 "p") (str.++ seed0_var_0xINPUT_160416 "nradOBNHlgjMuIEvx"))) (or (= seed0_T_2 (not seed0_T_1)) (=> (str.<= (str.++ seed0_var_0xINPUT_160416 "OLuEcM") (str.++ seed0_var_0xINPUT_160416 "qst4WnAKNTuj1U8HCOmf")) (str.<= (str.++ seed0_var_0xINPUT_160416 "") (str.++ seed0_var_0xINPUT_160416 "ldSwqmypRaK2geJT1kQ")))) (or seed0_T_2 (xor (str.< (str.++ seed0_var_0xINPUT_160416 "MDaRldIrzSTFXEnZN") (str.++ seed0_var_0xINPUT_160416 "ibZQja3lfeRL5h")) (str.prefixof (str.++ seed0_var_0xINPUT_160416 "viQ7uEXKcyPDNhkb") (str.++ seed0_var_0xINPUT_160416 "OUB4SjGfI")))) (or (= seed0_T_3 (= "" seed0_var_0xINPUT_160416)) (=> (str.suffixof (str.++ seed0_var_0xINPUT_160416 "") (str.++ seed0_var_0xINPUT_160416 "DzN0sHSTu")) (str.prefixof (str.++ seed0_var_0xINPUT_160416 "VBFTPbJ1j8rEMdtSsUO") (str.++ seed0_var_0xINPUT_160416 "kz7Ds")))) (or (= seed0_T_4 (not seed0_T_3)) (and (str.contains (str.++ seed0_var_0xINPUT_160416 "bG6TmOWI1fiX0Zn") (str.++ seed0_var_0xINPUT_160416 "8Bi7onUyObFWRdskG")) (str.< (str.++ seed0_var_0xINPUT_160416 "TJa2q") (str.++ seed0_var_0xINPUT_160416 "b3EW4PnVc1")))) (or seed0_T_4 (and (str.suffixof (str.++ seed0_var_0xINPUT_160416 "yOqVNk4jP05X6wz") (str.++ seed0_var_0xINPUT_160416 "t6cG0oK4VAHWOMEQR")) (str.prefixof (str.++ seed0_var_0xINPUT_160416 "TWF") (str.++ seed0_var_0xINPUT_160416 "ecXwUvohAqtlPTG0rO"))))))
(check-sat)
(exit)